c Random generated cnf formula, satisfiable: true
p cnf 10 50
-10 6 9 0
6 -4 -2 0
-6 1 -8 0
-6 1 3 0
-4 -3 1 0
1 3 -5 0
-5 3 1 0
2 8 5 0
-1 4 -6 0
-1 8 2 0
-6 1 7 0
-3 9 4 0
-9 10 8 0
-7 -8 -3 0
-7 9 6 0
6 5 3 0
-9 -4 -6 0
8 9 -6 0
4 -9 -1 0
5 -4 -10 0
8 -9 -5 0
-4 -7 9 0
-7 -2 5 0
1 5 -2 0
1 7 -6 0
-6 -10 -4 0
1 -7 -9 0
-4 10 -3 0
-7 -8 -1 0
4 -1 -10 0
-10 3 -7 0
6 10 -7 0
6 -8 -3 0
4 -10 -1 0
2 -7 -9 0
1 -5 3 0
-5 -2 -3 0
-10 -8 -6 0
-1 4 -3 0
-4 5 9 0
-7 -1 -6 0
1 -6 5 0
10 -8 -6 0
-4 1 -9 0
-9 6 -8 0
-4 -9 -2 0
-2 3 -1 0
-6 7 -1 0
-1 -6 8 0
-7 5 -9 0
